WARNING: for repeatability, setting FPU to use double precision
============================[ Problem Statistics ]=============================
|                                                                             |
|  Number of variables:            50                                         |
|  Number of clauses:             218                                         |
|  Parse time:                   0.00 s                                       |
|                                                                             |
============================[ Search Statistics ]==============================
| Conflicts |          ORIGINAL         |          LEARNT          | Progress |
|           |    Vars  Clauses Literals |    Limit  Clauses Lit/Cl |          |
===============================================================================
===============================================================================
restarts              : 1
conflicts             : 50             (33179 /sec)
decisions             : 52             (0.00 % random) (34506 /sec)
propagations          : 713            (473125 /sec)
conflict literals     : 160            (14.89 % deleted)
Memory used           : 20.00 MB
CPU time              : 0.001507 s

UNSATISFIABLE
